WARNING: for repeatability, setting FPU to use double precision
============================[ Problem Statistics ]=============================
|                                                                             |
|  Number of variables:            24                                         |
|  Number of clauses:              66                                         |
|  Parse time:                   0.00 s                                       |
|                                                                             |
============================[ Search Statistics ]==============================
| Conflicts |          ORIGINAL         |          LEARNT          | Progress |
|           |    Vars  Clauses Literals |    Limit  Clauses Lit/Cl |          |
===============================================================================
===============================================================================
restarts              : 1
conflicts             : 28             (10043 /sec)
decisions             : 33             (0.00 % random) (11836 /sec)
propagations          : 322            (115495 /sec)
conflict literals     : 97             (11.82 % deleted)
Memory used           : 11.00 MB
CPU time              : 0.002788 s

UNSATISFIABLE
